! B3LYP 6-31G(d,p) Opt
* xyzfile 0 1 retinol.xyz
